p cnf 27 68
a 4 14 0
e 1 2 3 5 6 7 8 9 10 11 12 13 15 16 17 18 19 20 21 22 23 24 25 26 27 0
3 -1 0
3 -2 0
1 2 -3 0
-3 -4 -5 0
3 4 -5 0
-3 4 5 0
3 -4 5 0
7 6 0
7 -1 0
-6 1 -7 0
8 -5 0
8 -7 0
5 7 -8 0
-10 -4 0
-10 -1 0
4 1 10 0
-12 11 0
-12 3 0
-11 -3 12 0
13 -10 0
13 -12 0
10 12 -13 0
14 -9 0
14 13 0
9 -13 -14 0
-6 15 -16 0
6 -15 -16 0
-6 -15 16 0
6 15 16 0
17 -9 0
17 16 0
9 -16 -17 0
14 -17 -18 0
-14 17 -18 0
14 17 18 0
-14 -17 18 0
-20 9 0
-20 -19 0
-9 19 20 0
-21 18 0
-21 20 0
-18 -20 21 0
2 -6 -22 0
-2 6 -22 0
2 6 22 0
-2 -6 22 0
23 -6 0
23 -3 0
6 3 -23 0
-24 -23 0
-24 -12 0
23 12 24 0
-25 -22 0
-25 -24 0
22 24 25 0
-26 -21 0
-26 -25 0
21 25 26 0
27 -8 0
27 -26 0
8 26 -27 0
-19 21 12 -2 -15 5 4 0
-21 4 -16 -7 10 0
-1 3 -18 0
-26 6 -11 -4 0
7 -6 -20 -13 10 22 0
-19 -4 11 0
27 0
